language ESSENCE' 1.0
letting AssignmentMatrix be [[1, 0, 0, 0, 1, 0, 0, 1, 1, 1, 1, 0, 0, 0, 1], 
[0, 1, 1, 1, 0, 0, 0, 0, 0, 1, 0, 1, 0, 0, 0], 
[0, 0, 0, 0, 0, 0, 0, 0, 0, 0, 0, 0, 1, 0, 0], 
[0, 0, 0, 0, 0, 0, 0, 0, 0, 0, 0, 0, 0, 0, 0], 
[0, 0, 0, 0, 0, 1, 1, 0, 0, 0, 0, 0, 0, 0, 0]]
letting CPU be [2, 2, 2, 2, 2, 4, 4, 2, 2, 4, 2, 2, 4, 37, 2]
letting Memory be [3750, 3750, 3750, 3750, 3750, 7500, 7500, 1700, 3750, 15000, 3750, 3750, 7500, 488009, 3750]
letting Price be [116, 116, 145, 116, 116, 210, 210, 130, 116, 350, 126, 116, 210, 4, 116]
letting Storage be [2000, 2000, 2000, 2000, 2000, 2000, 2000, 1000, 2000, 4000, 2000, 2000, 2000, 12009, 2000]
letting VMType be [433, 433, 413, 433, 433, 341, 341, 457, 433, 316, 477, 433, 341, 1, 433]
